# 1 amount of Vehicles
param nv :=
7 ;

# 2 amount of Orders
param no :=
12 ;

# 3 amount of locations
param nl :=
9 ;

# 4 amount of factories
param nf :=
3 ;

# 5 factory sets
set N_f_2[1] :=  5 ;
set N_f_2[2] :=  6 8 9 ;
set N_f_2[3] :=  7 ;

# 6 factory stop capacities
param H :=
1 1
2 2
3 1 ;

# 7 pickup locations for each order
param L_pd :=
1 4
2 2
3 1
4 3
5 4
6 1
7 4
8 4
9 3
10 2
11 2
12 4 ;

# 8 delivery locations for each order
param L_dd :=
1 9
2 8
3 7
4 6
5 5
6 7
7 9
8 5
9 7
10 9
11 7
12 5 ;

# 9 location sets
set L_2[1] :=  3 6 ;
set L_2[2] :=  2 10 11 ;
set L_2[3] :=  4 9 ;
set L_2[4] :=  1 5 7 8 12 ;
set L_2[5] :=  5 8 12 ;
set L_2[6] :=  4 ;
set L_2[7] :=  3 6 9 11 ;
set L_2[8] :=  2 ;
set L_2[9] :=  1 7 10 ;

# 10 order weights
param Q_kg_2 :=
1 1804.3707894398601
2 1054.7978042827312
3 1868.4102122079807
4 1208.3487989198509
5 650.51108160195
6 72.32695624592056
7 577.9488244656512
8 1728.1132310762769
9 4111.189987173315
10 72.21136585589039
11 1304.4011945073555
12 21373.539892907207 ;

# 11 order volumes
param Q_vol_2 :=
1 11.880039207073215
2 3.178206062469226
3 23.975059946013907
4 8.070283996089792
5 17.765807302222264
6 0.6878317090518172
7 3.543741067756731
8 18.892182589050435
9 65.83454319820012
10 1.034972184982565
11 11.237877215769181
12 91.35114489602252 ;

# 12 Locations vehicle can visit
set N_v_2[1] := 1 3 4 5 6 ;
set N_v_2[2] := 1 3 4 5 6 ;
set N_v_2[3] := 1 3 4 5 6 ;
set N_v_2[4] := 1 3 4 5 6 ;
set N_v_2[5] := 1 2 3 4 5 6 7 8 9 ;
set N_v_2[6] := 1 2 3 4 5 6 7 8 9 ;
set N_v_2[7] := 1 2 3 4 5 6 7 8 9 ;

# 13 Orders vehicles can pick up
set N_vp_2[1] := 3 4 5 6 7 8 ;
set N_vp_2[2] := 3 4 5 6 7 8 ;
set N_vp_2[3] := 1 3 4 5 6 7 8 9 ;
set N_vp_2[4] := 1 3 4 5 6 7 8 9 ;
set N_vp_2[5] := 1 2 3 4 5 6 7 8 9 10 11 12 ;
set N_vp_2[6] := 1 2 3 4 5 6 7 8 9 10 11 12 ;
set N_vp_2[7] := 1 2 3 4 5 6 7 8 9 10 11 12 ;

# 14 vehicle weight capacity
param K_kg :=
1 12000.0
2 12000.0
3 18000.0
4 18000.0
5 24000.0
6 24000.0
7 24000.0 ;

# 15 vehicle volume capacity
param K_vol :=
1 55.0
2 55.0
3 71.0
4 71.0
5 102.0
6 102.0
7 102.0 ;

# 16 amount of distance intervals
param na :=
1 2
2 2
3 2
4 2
5 2
6 2
7 2 ;

# 17 amount of weight intervals
param nb :=
1 2
2 2
3 2
4 2
5 3
6 3
7 3 ;

# 18 Distance intervals
param B_2 :=
1 1 1500.0
1 2 9999999.0
2 1 1500.0
2 2 9999999.0
3 1 1500.0
3 2 9999999.0
4 1 1500.0
4 2 9999999.0
5 1 1500.0
5 2 9999999.0
6 1 1500.0
6 2 9999999.0
7 1 1500.0
7 2 9999999.0 ;

# 19 Weight intervals
param Z_2 :=
1 1 1500.0
1 2 24000.0
1 3 . 
2 1 1500.0
2 2 24000.0
2 3 . 
3 1 1500.0
3 2 24000.0
3 3 . 
4 1 1500.0
4 2 24000.0
4 3 . 
5 1 700.0
5 2 3000.0
5 3 24000.0
6 1 700.0
6 2 3000.0
6 3 24000.0
7 1 700.0
7 2 3000.0
7 3 24000.0 ;

# 20 cost per kilometer
param C_km :=
1 1 1 0.11574494469165798
1 1 2 0.3723393221028571
1 1 3 . 
1 2 1 0.07716329646110535
1 2 2 0.2482262147352381
1 2 3 . 
2 1 1 0.11574494469165798
2 1 2 0.3723393221028571
2 1 3 . 
2 2 1 0.07716329646110535
2 2 2 0.2482262147352381
2 2 3 . 
3 1 1 0.13503576880693438
3 1 2 0.43439587578666683
3 1 3 . 
3 2 1 0.08487962610721587
3 2 2 0.2730488362087619
3 2 3 . 
4 1 1 0.13503576880693438
4 1 2 0.43439587578666683
4 1 3 . 
4 2 1 0.08487962610721587
4 2 2 0.2730488362087619
4 2 3 . 
5 1 1 0.10997314453125002
5 1 2 0.20935711350105707
5 1 3 0.4964524294704762
5 2 1 0.06873321533203125
5 2 2 0.13084819593816063
5 2 3 0.3102827684190475
6 1 1 0.10997314453125002
6 1 2 0.20935711350105707
6 1 3 0.4964524294704762
6 2 1 0.06873321533203125
6 2 2 0.13084819593816063
6 2 3 0.3102827684190475
7 1 1 0.10997314453125002
7 1 2 0.20935711350105707
7 1 3 0.4964524294704762
7 2 1 0.06873321533203125
7 2 2 0.13084819593816063
7 2 3 0.3102827684190475 ;

# 21 cost per kilo
param C_kg :=
1 1 1 0.004564315080642704
1 1 2 8.114541859150757E-4
1 1 3 . 
1 2 1 0.0018257260322570804
1 2 2 3.245816743660299E-4
1 2 3 . 
2 1 1 0.004564315080642704
2 1 2 8.114541859150757E-4
2 1 3 . 
2 2 1 0.0018257260322570804
2 2 2 3.245816743660299E-4
2 2 3 . 
3 1 1 0.004564315080642704
3 1 2 8.114541859150757E-4
3 1 3 . 
3 2 1 0.0018257260322570804
3 2 2 3.245816743660299E-4
3 2 3 . 
4 1 1 0.004564315080642704
4 1 2 8.114541859150757E-4
4 1 3 . 
4 2 1 0.0018257260322570804
4 2 2 3.245816743660299E-4
4 2 3 . 
5 1 1 0.0070495605468750035
5 1 2 0.0030595174524933127
5 1 3 8.114541859150757E-4
5 2 1 0.0028198242187500006
5 2 2 0.0012238069809973242
5 2 3 3.245816743660299E-4
6 1 1 0.0070495605468750035
6 1 2 0.0030595174524933127
6 1 3 8.114541859150757E-4
6 2 1 0.0028198242187500006
6 2 2 0.0012238069809973242
6 2 3 3.245816743660299E-4
7 1 1 0.0070495605468750035
7 1 2 0.0030595174524933127
7 1 3 8.114541859150757E-4
7 2 1 0.0028198242187500006
7 2 2 0.0012238069809973242
7 2 3 3.245816743660299E-4 ;

# 22 fixed costs
param C_fix :=
1 1 1 136.6875
1 1 2 764.94375
1 1 3 . 
1 2 1 1037.970703125
1 2 2 5808.7916015625
1 2 3 . 
2 1 1 136.6875
2 1 2 764.94375
2 1 3 . 
2 2 1 1037.970703125
2 2 2 5808.7916015625
2 2 3 . 
3 1 1 159.90504192000003
3 1 2 894.8759938560002
3 1 3 . 
3 2 1 1477.3559627052468
3 2 2 8267.721702398621
3 2 3 . 
4 1 1 159.90504192000003
4 1 2 894.8759938560002
4 1 3 . 
4 2 1 1477.3559627052468
4 2 2 8267.721702398621
4 2 3 . 
5 1 1 122.97711871999996
5 1 2 289.35792639999994
5 1 3 1093.0495669759996
5 2 1 1458.9605667660978
5 2 2 3432.848392390819
5 2 3 12967.584802256317
6 1 1 122.97711871999996
6 1 2 289.35792639999994
6 1 3 1093.0495669759996
6 2 1 1458.9605667660978
6 2 2 3432.848392390819
6 2 3 12967.584802256317
7 1 1 122.97711871999996
7 1 2 289.35792639999994
7 1 3 1093.0495669759996
7 2 1 1458.9605667660978
7 2 2 3432.848392390819
7 2 3 12967.584802256317 ;

# 23 stopping costs
param C_stop_2 :=
1 1 30.0
1 2 20.0
1 3 22.0
1 4 22.0
1 5 22.0
1 6 25.0
1 7 23.0
1 8 23.0
1 9 21.0
2 1 30.0
2 2 20.0
2 3 22.0
2 4 22.0
2 5 22.0
2 6 25.0
2 7 23.0
2 8 23.0
2 9 21.0
3 1 45.0
3 2 30.0
3 3 33.0
3 4 33.0
3 5 33.0
3 6 37.5
3 7 34.5
3 8 34.5
3 9 31.5
4 1 45.0
4 2 30.0
4 3 33.0
4 4 33.0
4 5 33.0
4 6 37.5
4 7 34.5
4 8 34.5
4 9 31.5
5 1 60.0
5 2 40.0
5 3 44.0
5 4 44.0
5 5 44.0
5 6 50.0
5 7 46.0
5 8 46.0
5 9 42.0
6 1 60.0
6 2 40.0
6 3 44.0
6 4 44.0
6 5 44.0
6 6 50.0
6 7 46.0
6 8 46.0
6 9 42.0
7 1 60.0
7 2 40.0
7 3 44.0
7 4 44.0
7 5 44.0
7 6 50.0
7 7 46.0
7 8 46.0
7 9 42.0 ;

# 24 cost of no transport
param C_2 :=
1 72673.56028751799
2 60335.15251822077
3 102354.64921713875
4 40273.7719852883
5 67525.427358387
6 61106.588420556065
7 52073.04249845941
8 79427.82413995844
9 168328.04767874465
10 48534.165594701786
11 83982.72668349458
12 348341.05306523986 ;

# 25 timewindow amounts at location
param pi_2 :=
1 3
2 4
3 3
4 3
5 4
6 3
7 3
8 4
9 4 ;

# 26 timewindow lower bounds
param T_l_2 :=
1 1 120.0
1 2 480.0
1 3 1560.0
1 4 . 
2 1 60.0
2 2 480.0
2 3 1500.0
2 4 1920.0
3 1 120.0
3 2 1560.0
3 3 3000.0
3 4 . 
4 1 0.0
4 2 240.0
4 3 1440.0
4 4 . 
5 1 0.0
5 2 240.0
5 3 1440.0
5 4 1740.0
6 1 0.0
6 2 1440.0
6 3 2880.0
6 4 . 
7 1 0.0
7 2 1440.0
7 3 2880.0
7 4 . 
8 1 0.0
8 2 1440.0
8 3 2880.0
8 4 4320.0
9 1 0.0
9 2 1440.0
9 3 2880.0
9 4 4320.0 ;

# 27 timewindow upper bounds
param T_u_2 :=
1 1 420.0
1 2 660.0
1 3 1860.0
1 4 . 
2 1 360.0
2 2 780.0
2 3 1800.0
2 4 2220.0
3 1 360.0
3 2 1800.0
3 3 3240.0
3 4 . 
4 1 180.0
4 2 420.0
4 3 1620.0
4 4 . 
5 1 180.0
5 2 480.0
5 3 1620.0
5 4 1980.0
6 1 180.0
6 2 1620.0
6 3 3060.0
6 4 . 
7 1 300.0
7 2 1740.0
7 3 3180.0
7 4 . 
8 1 180.0
8 2 1740.0
8 3 3180.0
8 4 4620.0
9 1 240.0
9 2 1740.0
9 3 3180.0
9 4 4620.0 ;

# 28 Travel time
param T_2 :=
1 1 1 . 
1 1 2 . 
1 1 3 613.526995805654
1 1 4 414.49709676331764
1 1 5 1.5811388300841895
1 1 6 551.2417882454431
1 1 7 . 
1 1 8 . 
1 1 9 . 
1 2 1 . 
1 2 2 . 
1 2 3 . 
1 2 4 . 
1 2 5 . 
1 2 6 . 
1 2 7 . 
1 2 8 . 
1 2 9 . 
1 3 1 613.526995805654
1 3 2 . 
1 3 3 . 
1 3 4 439.6708222778138
1 3 5 467.30378974242933
1 3 6 2.0
1 3 7 . 
1 3 8 . 
1 3 9 . 
1 4 1 414.49709676331764
1 4 2 . 
1 4 3 439.6708222778138
1 4 4 . 
1 4 5 538.5751540024205
1 4 6 440.53585486643897
1 4 7 . 
1 4 8 . 
1 4 9 . 
1 5 1 1.5811388300841895
1 5 2 . 
1 5 3 467.30378974242933
1 5 4 538.5751540024205
1 5 5 . 
1 5 6 583.0228034684706
1 5 7 . 
1 5 8 . 
1 5 9 . 
1 6 1 551.2417882454431
1 6 2 . 
1 6 3 2.0
1 6 4 440.53585486643897
1 6 5 583.0228034684706
1 6 6 . 
1 6 7 . 
1 6 8 . 
1 6 9 . 
1 7 1 . 
1 7 2 . 
1 7 3 . 
1 7 4 . 
1 7 5 . 
1 7 6 . 
1 7 7 . 
1 7 8 . 
1 7 9 . 
1 8 1 . 
1 8 2 . 
1 8 3 . 
1 8 4 . 
1 8 5 . 
1 8 6 . 
1 8 7 . 
1 8 8 . 
1 8 9 . 
1 9 1 . 
1 9 2 . 
1 9 3 . 
1 9 4 . 
1 9 5 . 
1 9 6 . 
1 9 7 . 
1 9 8 . 
1 9 9 . 
2 1 1 . 
2 1 2 . 
2 1 3 613.526995805654
2 1 4 414.49709676331764
2 1 5 1.5811388300841895
2 1 6 551.2417882454431
2 1 7 . 
2 1 8 . 
2 1 9 . 
2 2 1 . 
2 2 2 . 
2 2 3 . 
2 2 4 . 
2 2 5 . 
2 2 6 . 
2 2 7 . 
2 2 8 . 
2 2 9 . 
2 3 1 613.526995805654
2 3 2 . 
2 3 3 . 
2 3 4 439.6708222778138
2 3 5 467.30378974242933
2 3 6 2.0
2 3 7 . 
2 3 8 . 
2 3 9 . 
2 4 1 414.49709676331764
2 4 2 . 
2 4 3 439.6708222778138
2 4 4 . 
2 4 5 538.5751540024205
2 4 6 440.53585486643897
2 4 7 . 
2 4 8 . 
2 4 9 . 
2 5 1 1.5811388300841895
2 5 2 . 
2 5 3 467.30378974242933
2 5 4 538.5751540024205
2 5 5 . 
2 5 6 583.0228034684706
2 5 7 . 
2 5 8 . 
2 5 9 . 
2 6 1 551.2417882454431
2 6 2 . 
2 6 3 2.0
2 6 4 440.53585486643897
2 6 5 583.0228034684706
2 6 6 . 
2 6 7 . 
2 6 8 . 
2 6 9 . 
2 7 1 . 
2 7 2 . 
2 7 3 . 
2 7 4 . 
2 7 5 . 
2 7 6 . 
2 7 7 . 
2 7 8 . 
2 7 9 . 
2 8 1 . 
2 8 2 . 
2 8 3 . 
2 8 4 . 
2 8 5 . 
2 8 6 . 
2 8 7 . 
2 8 8 . 
2 8 9 . 
2 9 1 . 
2 9 2 . 
2 9 3 . 
2 9 4 . 
2 9 5 . 
2 9 6 . 
2 9 7 . 
2 9 8 . 
2 9 9 . 
3 1 1 . 
3 1 2 . 
3 1 3 628.8651707007953
3 1 4 424.85952418240055
3 1 5 1.6206673008362942
3 1 6 565.0228329515792
3 1 7 . 
3 1 8 . 
3 1 9 . 
3 2 1 . 
3 2 2 . 
3 2 3 . 
3 2 4 . 
3 2 5 . 
3 2 6 . 
3 2 7 . 
3 2 8 . 
3 2 9 . 
3 3 1 628.8651707007953
3 3 2 . 
3 3 3 . 
3 3 4 450.6625928347591
3 3 5 478.98638448599
3 3 6 2.05
3 3 7 . 
3 3 8 . 
3 3 9 . 
3 4 1 424.85952418240055
3 4 2 . 
3 4 3 450.6625928347591
3 4 4 . 
3 4 5 552.039532852481
3 4 6 451.5492512380999
3 4 7 . 
3 4 8 . 
3 4 9 . 
3 5 1 1.6206673008362942
3 5 2 . 
3 5 3 478.98638448599
3 5 4 552.039532852481
3 5 5 . 
3 5 6 597.5983735551823
3 5 7 . 
3 5 8 . 
3 5 9 . 
3 6 1 565.0228329515792
3 6 2 . 
3 6 3 2.05
3 6 4 451.5492512380999
3 6 5 597.5983735551823
3 6 6 . 
3 6 7 . 
3 6 8 . 
3 6 9 . 
3 7 1 . 
3 7 2 . 
3 7 3 . 
3 7 4 . 
3 7 5 . 
3 7 6 . 
3 7 7 . 
3 7 8 . 
3 7 9 . 
3 8 1 . 
3 8 2 . 
3 8 3 . 
3 8 4 . 
3 8 5 . 
3 8 6 . 
3 8 7 . 
3 8 8 . 
3 8 9 . 
3 9 1 . 
3 9 2 . 
3 9 3 . 
3 9 4 . 
3 9 5 . 
3 9 6 . 
3 9 7 . 
3 9 8 . 
3 9 9 . 
4 1 1 . 
4 1 2 . 
4 1 3 628.8651707007953
4 1 4 424.85952418240055
4 1 5 1.6206673008362942
4 1 6 565.0228329515792
4 1 7 . 
4 1 8 . 
4 1 9 . 
4 2 1 . 
4 2 2 . 
4 2 3 . 
4 2 4 . 
4 2 5 . 
4 2 6 . 
4 2 7 . 
4 2 8 . 
4 2 9 . 
4 3 1 628.8651707007953
4 3 2 . 
4 3 3 . 
4 3 4 450.6625928347591
4 3 5 478.98638448599
4 3 6 2.05
4 3 7 . 
4 3 8 . 
4 3 9 . 
4 4 1 424.85952418240055
4 4 2 . 
4 4 3 450.6625928347591
4 4 4 . 
4 4 5 552.039532852481
4 4 6 451.5492512380999
4 4 7 . 
4 4 8 . 
4 4 9 . 
4 5 1 1.6206673008362942
4 5 2 . 
4 5 3 478.98638448599
4 5 4 552.039532852481
4 5 5 . 
4 5 6 597.5983735551823
4 5 7 . 
4 5 8 . 
4 5 9 . 
4 6 1 565.0228329515792
4 6 2 . 
4 6 3 2.05
4 6 4 451.5492512380999
4 6 5 597.5983735551823
4 6 6 . 
4 6 7 . 
4 6 8 . 
4 6 9 . 
4 7 1 . 
4 7 2 . 
4 7 3 . 
4 7 4 . 
4 7 5 . 
4 7 6 . 
4 7 7 . 
4 7 8 . 
4 7 9 . 
4 8 1 . 
4 8 2 . 
4 8 3 . 
4 8 4 . 
4 8 5 . 
4 8 6 . 
4 8 7 . 
4 8 8 . 
4 8 9 . 
4 9 1 . 
4 9 2 . 
4 9 3 . 
4 9 4 . 
4 9 5 . 
4 9 6 . 
4 9 7 . 
4 9 8 . 
4 9 9 . 
5 1 1 . 
5 1 2 1.05
5 1 3 644.2033455959368
5 1 4 435.22195160148357
5 1 5 1.660195771588399
5 1 6 578.8038776577152
5 1 7 763.9710251082881
5 1 8 494.9872949090117
5 1 9 518.9301449167117
5 2 1 1.05
5 2 2 . 
5 2 3 580.2220586563776
5 2 4 528.3886895869092
5 2 5 0.7424621202458749
5 2 6 566.2741693899684
5 2 7 716.8146566464071
5 2 8 531.8069472261742
5 2 9 578.8488956453056
5 3 1 644.2033455959368
5 3 2 580.2220586563776
5 3 3 . 
5 3 4 461.65436339170446
5 3 5 490.6689792295508
5 3 6 2.1
5 3 7 889.0280806541994
5 3 8 1.1739356881873897
5 3 9 2.8272115237456146
5 4 1 435.22195160148357
5 4 2 528.3886895869092
5 4 3 461.65436339170446
5 4 4 . 
5 4 5 565.5039117025416
5 4 6 462.5626476097609
5 4 7 423.6080739517365
5 4 8 550.9253974146288
5 4 9 429.6217307558079
5 5 1 1.660195771588399
5 5 2 0.7424621202458749
5 5 3 490.6689792295508
5 5 4 565.5039117025416
5 5 5 . 
5 5 6 612.1739436418941
5 5 7 695.3349017739582
5 5 8 554.6055696991281
5 5 9 469.3458800267198
5 6 1 578.8038776577152
5 6 2 566.2741693899684
5 6 3 2.1
5 6 4 462.5626476097609
5 6 5 612.1739436418941
5 6 6 . 
5 6 7 845.5040614291185
5 6 8 1.1739356881873897
5 6 9 2.8272115237456146
5 7 1 763.9710251082881
5 7 2 716.8146566464071
5 7 3 889.0280806541994
5 7 4 423.6080739517365
5 7 5 695.3349017739582
5 7 6 845.5040614291185
5 7 7 . 
5 7 8 946.7046180095941
5 7 9 725.2241761172885
5 8 1 494.9872949090117
5 8 2 531.8069472261742
5 8 3 1.1739356881873897
5 8 4 550.9253974146288
5 8 5 554.6055696991281
5 8 6 1.1739356881873897
5 8 7 946.7046180095941
5 8 8 . 
5 8 9 3.1499999999999995
5 9 1 518.9301449167117
5 9 2 578.8488956453056
5 9 3 2.8272115237456146
5 9 4 429.6217307558079
5 9 5 469.3458800267198
5 9 6 2.8272115237456146
5 9 7 725.2241761172885
5 9 8 3.1499999999999995
5 9 9 . 
6 1 1 . 
6 1 2 1.05
6 1 3 644.2033455959368
6 1 4 435.22195160148357
6 1 5 1.660195771588399
6 1 6 578.8038776577152
6 1 7 763.9710251082881
6 1 8 494.9872949090117
6 1 9 518.9301449167117
6 2 1 1.05
6 2 2 . 
6 2 3 580.2220586563776
6 2 4 528.3886895869092
6 2 5 0.7424621202458749
6 2 6 566.2741693899684
6 2 7 716.8146566464071
6 2 8 531.8069472261742
6 2 9 578.8488956453056
6 3 1 644.2033455959368
6 3 2 580.2220586563776
6 3 3 . 
6 3 4 461.65436339170446
6 3 5 490.6689792295508
6 3 6 2.1
6 3 7 889.0280806541994
6 3 8 1.1739356881873897
6 3 9 2.8272115237456146
6 4 1 435.22195160148357
6 4 2 528.3886895869092
6 4 3 461.65436339170446
6 4 4 . 
6 4 5 565.5039117025416
6 4 6 462.5626476097609
6 4 7 423.6080739517365
6 4 8 550.9253974146288
6 4 9 429.6217307558079
6 5 1 1.660195771588399
6 5 2 0.7424621202458749
6 5 3 490.6689792295508
6 5 4 565.5039117025416
6 5 5 . 
6 5 6 612.1739436418941
6 5 7 695.3349017739582
6 5 8 554.6055696991281
6 5 9 469.3458800267198
6 6 1 578.8038776577152
6 6 2 566.2741693899684
6 6 3 2.1
6 6 4 462.5626476097609
6 6 5 612.1739436418941
6 6 6 . 
6 6 7 845.5040614291185
6 6 8 1.1739356881873897
6 6 9 2.8272115237456146
6 7 1 763.9710251082881
6 7 2 716.8146566464071
6 7 3 889.0280806541994
6 7 4 423.6080739517365
6 7 5 695.3349017739582
6 7 6 845.5040614291185
6 7 7 . 
6 7 8 946.7046180095941
6 7 9 725.2241761172885
6 8 1 494.9872949090117
6 8 2 531.8069472261742
6 8 3 1.1739356881873897
6 8 4 550.9253974146288
6 8 5 554.6055696991281
6 8 6 1.1739356881873897
6 8 7 946.7046180095941
6 8 8 . 
6 8 9 3.1499999999999995
6 9 1 518.9301449167117
6 9 2 578.8488956453056
6 9 3 2.8272115237456146
6 9 4 429.6217307558079
6 9 5 469.3458800267198
6 9 6 2.8272115237456146
6 9 7 725.2241761172885
6 9 8 3.1499999999999995
6 9 9 . 
7 1 1 . 
7 1 2 1.05
7 1 3 644.2033455959368
7 1 4 435.22195160148357
7 1 5 1.660195771588399
7 1 6 578.8038776577152
7 1 7 763.9710251082881
7 1 8 494.9872949090117
7 1 9 518.9301449167117
7 2 1 1.05
7 2 2 . 
7 2 3 580.2220586563776
7 2 4 528.3886895869092
7 2 5 0.7424621202458749
7 2 6 566.2741693899684
7 2 7 716.8146566464071
7 2 8 531.8069472261742
7 2 9 578.8488956453056
7 3 1 644.2033455959368
7 3 2 580.2220586563776
7 3 3 . 
7 3 4 461.65436339170446
7 3 5 490.6689792295508
7 3 6 2.1
7 3 7 889.0280806541994
7 3 8 1.1739356881873897
7 3 9 2.8272115237456146
7 4 1 435.22195160148357
7 4 2 528.3886895869092
7 4 3 461.65436339170446
7 4 4 . 
7 4 5 565.5039117025416
7 4 6 462.5626476097609
7 4 7 423.6080739517365
7 4 8 550.9253974146288
7 4 9 429.6217307558079
7 5 1 1.660195771588399
7 5 2 0.7424621202458749
7 5 3 490.6689792295508
7 5 4 565.5039117025416
7 5 5 . 
7 5 6 612.1739436418941
7 5 7 695.3349017739582
7 5 8 554.6055696991281
7 5 9 469.3458800267198
7 6 1 578.8038776577152
7 6 2 566.2741693899684
7 6 3 2.1
7 6 4 462.5626476097609
7 6 5 612.1739436418941
7 6 6 . 
7 6 7 845.5040614291185
7 6 8 1.1739356881873897
7 6 9 2.8272115237456146
7 7 1 763.9710251082881
7 7 2 716.8146566464071
7 7 3 889.0280806541994
7 7 4 423.6080739517365
7 7 5 695.3349017739582
7 7 6 845.5040614291185
7 7 7 . 
7 7 8 946.7046180095941
7 7 9 725.2241761172885
7 8 1 494.9872949090117
7 8 2 531.8069472261742
7 8 3 1.1739356881873897
7 8 4 550.9253974146288
7 8 5 554.6055696991281
7 8 6 1.1739356881873897
7 8 7 946.7046180095941
7 8 8 . 
7 8 9 3.1499999999999995
7 9 1 518.9301449167117
7 9 2 578.8488956453056
7 9 3 2.8272115237456146
7 9 4 429.6217307558079
7 9 5 469.3458800267198
7 9 6 2.8272115237456146
7 9 7 725.2241761172885
7 9 8 3.1499999999999995
7 9 9 . ;

# 29 Travel distance
param D_2 :=
1 1 . 
1 2 2.0
1 3 889.0539916113081
1 4 774.9941935266354
1 5 3.1622776601683795
1 6 890.4835764908862
1 7 1323.182904968168
1 8 888.8329426838319
1 9 894.4383712699271
2 1 2.0
2 2 . 
2 3 887.1848736311953
2 4 774.454646832208
2 5 1.4142135623730951
2 6 888.6174655047018
2 7 1323.3612507550613
2 8 886.9656137641414
2 9 892.5693250386773
3 1 889.0539916113081
3 2 887.1848736311953
3 3 . 
3 4 755.3416445556276
3 5 886.6075794848587
3 6 4.0
3 7 1379.386820293713
3 8 2.23606797749979
3 9 5.385164807134504
4 1 774.9941935266354
4 2 774.454646832208
4 3 755.3416445556276
4 4 . 
4 5 775.1503080048411
4 6 753.0717097328779
4 7 658.8725218128315
4 8 753.3817093611976
4 9 758.3271062015389
5 1 3.1622776601683795
5 2 1.4142135623730951
5 3 886.6075794848587
5 4 775.1503080048411
5 5 . 
5 6 888.045606936941
5 7 1324.4474319503965
5 8 886.3915613316724
5 9 891.9921524318473
6 1 890.4835764908862
6 2 888.6174655047018
6 3 4.0
6 4 753.0717097328779
6 5 888.045606936941
6 6 . 
6 7 1376.483926531654
6 8 2.23606797749979
6 9 5.385164807134504
7 1 1323.182904968168
7 2 1323.3612507550613
7 3 1379.386820293713
7 4 658.8725218128315
7 5 1324.4474319503965
7 6 1376.483926531654
7 7 . 
7 8 1377.246891446846
7 9 1381.3793830805496
8 1 888.8329426838319
8 2 886.9656137641414
8 3 2.23606797749979
8 4 753.3817093611976
8 5 886.3915613316724
8 6 2.23606797749979
8 7 1377.246891446846
8 8 . 
8 9 6.0
9 1 894.4383712699271
9 2 892.5693250386773
9 3 5.385164807134504
9 4 758.3271062015389
9 5 891.9921524318473
9 6 5.385164807134504
9 7 1381.3793830805496
9 8 6.0
9 9 . ;

